61
100
70	7
69	4
68	6
67	4
66	2
65	6
64	6
63	2
62	3
61	6
60	3
59	5
58	2
57	3
56	1
55	6
54	5
53	5
52	3
51	5
50	6
49	7
48	2
47	10
46	8
45	8
44	3
43	4
42	4
41	4
40	4
39	5
38	5
37	9
36	8
35	4
34	3
33	6
32	2
31	3
30	6
29	5
28	1
27	10
26	4
25	6
24	6
23	5
22	4
21	6
20	6
19	3
18	8
17	4
16	3
15	5
14	4
13	4
12	6
11	6
10	9
